c User generated cnf file
p cnf 14 26
5 -4 3 0 
1 14 -8 0 
-13 4 8 0 
4 -3 8 0 
7 13 -11 0 
1 13 -7 0 
-4 11 3 0 
-4 14 12 0 
-10 9 10 0 
6 -1 7 0 
6 -5 14 0 
10 10 -4 0 
1 -13 8 0 
1 11 -8 0 
11 -6 14 0 
2 -14 6 0 
9 2 -8 0 
-1 5 11 0 
5 -7 3 0 
10 -4 8 0 
1 3 -9 0 
10 -8 3 0 
-2 14 10 0 
5 7 -6 0 
-9 10 13 0 
4 -12 2 0 
